* ENCODING=ISO-8859-1
NAME          CPLEX
ROWS
 N  obj1    
 G  c1      
 G  c2      
 G  c3      
 G  c4      
 G  c5      
 G  c6      
 G  c7      
 G  c8      
 G  c9      
 G  c10     
 G  c11     
 G  c12     
 G  c13     
 G  c14     
 G  c15     
 G  c16     
 G  c17     
 G  c18     
 G  c19     
 G  c20     
 G  c21     
 G  c22     
 G  c23     
 G  c24     
 G  c25     
COLUMNS
    MARK0000  'MARKER'                 'INTORG'
    x1        obj1                            1
    x1        c3                            651
    x1        c8                            646
    x1        c11                           966
    x1        c22                           443
    x2        obj1                            1
    x2        c11                           866
    x2        c12                           984
    x2        c15                           832
    x2        c20                           356
    x3        obj1                            1
    x3        c9                            668
    x3        c17                           739
    x3        c24                           883
    x4        obj1                            1
    x4        c5                            454
    x4        c17                           390
    x4        c18                           649
    x4        c23                           409
    x5        obj1                            1
    x5        c3                            532
    x5        c8                            711
    x6        obj1                            1
    x6        c4                            201
    x6        c11                           994
    x6        c16                           342
    x6        c23                           111
    x7        obj1                            1
    x7        c7                            728
    x7        c16                           133
    x8        obj1                            1
    x8        c2                            802
    x8        c8                            614
    x8        c17                           564
    x8        c24                           943
    x8        c25                           448
    x9        obj1                            1
    x9        c10                           574
    x9        c14                           616
    x10       obj1                            1
    x10       c2                            376
    x10       c3                            486
    x10       c20                           555
    x11       obj1                            1
    x11       c2                            276
    x11       c8                            335
    x11       c15                           777
    x11       c19                           376
    x11       c20                           902
    x12       obj1                            1
    x12       c2                            909
    x12       c12                           950
    x12       c14                           342
    x12       c19                           371
    x12       c24                           772
    x13       obj1                            1
    x13       c3                            785
    x14       obj1                            1
    x14       c13                           976
    x14       c16                           630
    x14       c23                           985
    x15       obj1                            1
    x15       c15                           203
    x15       c24                           115
    x16       obj1                            1
    x16       c10                           178
    x16       c21                           970
    x17       obj1                            1
    x17       c16                           341
    x18       obj1                            1
    x18       c2                            686
    x18       c23                           683
    x19       obj1                            1
    x19       c15                           765
    x19       c18                           408
    x19       c19                           551
    x20       obj1                            1
    x20       c12                           739
    x20       c15                           782
    x21       obj1                            1
    x21       c4                            159
    x21       c24                           462
    x22       obj1                            1
    x23       obj1                            1
    x23       c6                            278
    x23       c11                           996
    x24       obj1                            1
    x24       c8                            461
    x24       c21                           317
    x25       obj1                            1
    x25       c5                            457
    x25       c13                           189
    x25       c15                           404
    x26       obj1                            1
    x26       c1                            984
    x26       c4                            670
    x26       c7                            297
    x26       c17                           344
    x26       c19                           248
    x27       obj1                            1
    x27       c3                            957
    x27       c13                           913
    x27       c23                           793
    x28       obj1                            1
    x28       c1                            284
    x28       c9                            203
    x28       c20                           301
    x28       c25                           484
    x29       obj1                            1
    x30       obj1                            1
    x30       c7                            463
    x30       c17                           287
    x30       c22                           621
    x31       obj1                            1
    x31       c9                            577
    x32       obj1                            1
    x32       c7                            635
    x32       c9                            363
    x32       c12                           834
    x32       c17                           406
    x32       c20                           557
    x32       c23                           420
    x33       obj1                            1
    x33       c10                           349
    x33       c21                           689
    x34       obj1                            1
    x34       c5                            625
    x34       c7                            916
    x34       c25                           986
    x35       obj1                            1
    x35       c8                            323
    x35       c12                           364
    x35       c14                           575
    x35       c18                           435
    x35       c23                           139
    x36       obj1                            1
    x37       obj1                            1
    x37       c14                           800
    x38       obj1                            1
    x38       c3                            759
    x38       c6                            880
    x38       c11                           206
    x39       obj1                            1
    x39       c1                            570
    x40       obj1                            1
    x40       c18                           603
    x41       obj1                            1
    x41       c9                            999
    x41       c24                           471
    x42       obj1                            1
    x42       c7                            375
    x43       obj1                            1
    x43       c11                           818
    x44       obj1                            1
    x44       c2                            434
    x44       c10                           391
    x44       c13                           423
    x44       c16                           811
    x44       c21                           101
    x45       obj1                            1
    x46       obj1                            1
    x46       c11                           140
    x46       c22                           725
    x47       obj1                            1
    x47       c3                            498
    x47       c7                            613
    x48       obj1                            1
    x48       c1                            808
    x48       c14                           456
    x48       c19                           570
    x48       c20                           310
    x49       obj1                            1
    x49       c6                            156
    x49       c24                           505
    x50       obj1                            1
    x50       c17                           480
    x50       c19                           188
    MARK0001  'MARKER'                 'INTEND'
RHS
    rhs       c1                           1323
    rhs       c2                           1742
    rhs       c3                           2334
    rhs       c4                            515
    rhs       c5                            768
    rhs       c6                            657
    rhs       c7                           2014
    rhs       c8                           1545
    rhs       c9                           1405
    rhs       c10                           746
    rhs       c11                          2493
    rhs       c12                          1936
    rhs       c13                          1251
    rhs       c14                          1395
    rhs       c15                          1882
    rhs       c16                          1129
    rhs       c17                          1605
    rhs       c18                          1048
    rhs       c19                          1152
    rhs       c20                          1491
    rhs       c21                          1039
    rhs       c22                           895
    rhs       c23                          1770
    rhs       c24                          2076
    rhs       c25                           959
BOUNDS
 LI bnd       x1        0
 LI bnd       x2        0
 LI bnd       x3        0
 LI bnd       x4        0
 LI bnd       x5        0
 LI bnd       x6        0
 LI bnd       x7        0
 LI bnd       x8        0
 LI bnd       x9        0
 LI bnd       x10       0
 LI bnd       x11       0
 LI bnd       x12       0
 LI bnd       x13       0
 LI bnd       x14       0
 LI bnd       x15       0
 LI bnd       x16       0
 LI bnd       x17       0
 LI bnd       x18       0
 LI bnd       x19       0
 LI bnd       x20       0
 LI bnd       x21       0
 LI bnd       x22       0
 LI bnd       x23       0
 LI bnd       x24       0
 LI bnd       x25       0
 LI bnd       x26       0
 LI bnd       x27       0
 LI bnd       x28       0
 LI bnd       x29       0
 LI bnd       x30       0
 LI bnd       x31       0
 LI bnd       x32       0
 LI bnd       x33       0
 LI bnd       x34       0
 LI bnd       x35       0
 LI bnd       x36       0
 LI bnd       x37       0
 LI bnd       x38       0
 LI bnd       x39       0
 LI bnd       x40       0
 LI bnd       x41       0
 LI bnd       x42       0
 LI bnd       x43       0
 LI bnd       x44       0
 LI bnd       x45       0
 LI bnd       x46       0
 LI bnd       x47       0
 LI bnd       x48       0
 LI bnd       x49       0
 LI bnd       x50       0
ENDATA
